  1   0   0   0   0   0   0   0   0   0   0   0   0   0   0   0   0   0   0   0   0   0   0   0   0   0   0   0   0   0   0   0   0   0   0   0   0   0   0   0   0   0   0   0   0   0   0   0   0   0   0   0   0   0   0   0   0   0   0   0   0   0   0   0   0   0   0   0   0   0   0   0   0   0   0   0   0   0   0   0   0   0   0   0   0   0   0   0   0   0   0   0   0   0   0   0   0   0   0   0   0   0   0   0   0   0   0   0   0   0   0   0   0   0   0   0   0   0   0   0   0   0   0   0   0   0   0   0   0   0   0   0   0   0   0   0   0   0   0   0   0   0   0   0   0   0   0   0   0   0   0   0   0   0   0   0   0   0   0   0   0   0   0   0   0   0   0   0   0   0   0   0   0   0   0   0   0   0   0   0   0   0   0   0   0   0   0   0   0   0   0   0   0   0   0   0   0   0   0   0   0   0   0   0   0   0   0   0   0   0   0   0   0   0   0   0   0   0   0   0   0   0   0   0   0   0   0   0   0   0   0   0   0   0   0   0   0   0   0   0   0   0   0   0   0   0   0   0   0   0   0   0   0   0   0   0   0   0   0   0   0   0   0   0   0   0   0   0   0   0   0   0   0   0   0   0   0   0   0   0   0   0   0   0   0   0   0   0   0   0   0   0   0   0   0   0   0   0   0   0   0   0   0   0   0   0   0   0   0   0   0   0   0   0   0   0   0   0   0   0   0   0   0   0   0   0   0   0   0   0   0   0   0   0   0   0   0   0   0   0   0   0   0   0   0   0   0   0   0   0   0   0   0   0   0   0   0   0   0   0   0   0   0   0   0   0   0   0   0   0   0   0   0   0   0   0   0   0   0   0   0   0   0   0   0   0   0   0   0   0   0   0   0   0   0   0   0   0   0   0   0   0   0   0   0   0   0   0   0   0   0   0   0   0   0   0   0   0   0   0   0   0   0   0   0   0   0   0   0   0   0   0   0   0   0   0   0   0   0   0   0   0   0   0   0   0   0   0   0   0   0   0   0   0   0   0   0   0   0   0   0   0   0   0   0   0   0   0   0   0   0   0   0   0   0   0   0   0   0   0   0   0   0   0   0   0   0   0   0   0   0   0   0   0   0   0   0   0   0   0   0   0   0   0   0   0   0   0   0   0   0   0   0   0   0   0   0   0   0   0   0   0   0   0   0   0   0   0   0   0   0   0   0   0   0   0   0   0   0   0   0   0   0   0   0   0   0   0   0   0   0   0   0   0   0   0   0   0   0   0   0   0   0   0   0   0   0   0   0   0   0   0   0   0   0   0   0   0   0   0   0   0   0   0   0   0   0   0   0   0   0   0   0   0   0   0   0   0   0   0   0   0   0   0   0   0   0   0   0   0   0   0   0   0   0   0   0   0   0   0   0   0   0   0   0   0   0   0   0   0   0   0   0   0   0   0   0   0   0   0   0   0   0   0   0   0   0   0   0   0   0   0   0   0   0   0   0   0   0   0   0   0   0   0   0   0   0   0   0   0   0   0   0   0   0   0   0   0   0   0   0   0   0   0   0   0   0   0   0   0   0   0   0   0   0   0   0   0   0   0   0   0   0   0   0   0   0   0   0   0   0   0   0   0   0   0   0   0   0   0   0   0   0   0   0   0   0   0   0   0   0   0   0   0   0   0   0   0   0   0   0   0   0   0   0   0   0   0   0   0   0   0   0   0   0   0   0   0   0   0   0   0   0   0   0   0   0   0   0   0   0   0   0   0   0   0   0   0   0   0   0   0   0   0   0   0   0   0   0   0   0   0   0   0   0   0   0   0   0   0   0   0   0   0   0   0   0   0   0   0   0   0   0   0   0   0   0   0   0   0   0   0   0   0   0   0   0   0   0   0   0   0   0   0   0   0   0   0   0   0   0   0   0   0   0   0   0   0   0   0   0   0   0   0   0   0   0   0   0   0   0   0   0   0   0   0   0   0   0   0   0   0   0   0   0   0   0   0   0   0   0   0   0   0   0   0   0   0   0   0   0   0   0   0   0   0   0   0   0   0   0   0   0   0   0   0   0   0   0   0   0   0   0   0   0   0   0   0   0   0   0   0   0   0   0   0   0   0   0   0   0   0   0   0   0   0   0   0   0   0   0   0   0   0   0   0   0   0   0   0   0   0   0   0   0   0   0   0   0   0   0   0   0   0   0   0   0   0   0   0   0   0   0   0   0   0   0   0   0   0   0   0   0   0   0   0   0   0   0   0   0   0   0   0   0   0   0   0   0   0 
REMAINING SPACE:      128
ACCUMULATED PRIORITY: 100
EXECUTION TIME:       0.000111700
QTY PRI VAL
[1] 100 372
[0] 100 289
[0] 100 261
[0] 100 365
[0] 100 456
[0] 100 366
[0] 100 340
[0] 100 220
[0] 100 266
[0] 100 226
[0] 100 423
[0] 100 351
[0] 100 484
[0] 100 359
[0] 100 243
[0] 100 426
[0] 100 237
[0] 100 321
[0]  99 350
[0]  99 292
[0]  99 306
[0]  99 308
[0]  99 374
[0]  99 237
[0]  98 328
[0]  98 477
[0]  98 339
[0]  98 248
[0]  98 499
[0]  98 365
[0]  98 239
[0]  98 363
[0]  97 429
[0]  97 378
[0]  97 430
[0]  97 243
[0]  97 214
[0]  97 424
[0]  97 262
[0]  97 456
[0]  97 355
[0]  97 225
[0]  97 435
[0]  97 220
[0]  97 442
[0]  97 442
[0]  96 293
[0]  96 238
[0]  96 389
[0]  96 286
[0]  96 421
[0]  96 445
[0]  96 440
[0]  96 294
[0]  96 205
[0]  96 416
[0]  96 450
[0]  95 478
[0]  95 265
[0]  95 297
[0]  95 335
[0]  95 331
[0]  95 286
[0]  95 490
[0]  95 422
[0]  95 485
[0]  95 286
[0]  95 298
[0]  95 265
[0]  94 433
[0]  94 266
[0]  94 261
[0]  94 470
[0]  94 246
[0]  94 220
[0]  94 226
[0]  94 407
[0]  94 363
[0]  94 486
[0]  94 223
[0]  94 281
[0]  94 239
[0]  93 353
[0]  93 436
[0]  93 268
[0]  93 431
[0]  93 231
[0]  93 334
[0]  93 243
[0]  93 282
[0]  93 281
[0]  93 375
[0]  93 458
[0]  93 205
[0]  92 485
[0]  92 467
[0]  92 381
[0]  92 246
[0]  92 357
[0]  92 338
[0]  92 312
[0]  92 255
[0]  92 207
[0]  92 209
[0]  92 354
[0]  92 244
[0]  92 455
[0]  91 290
[0]  91 394
[0]  91 251
[0]  91 309
[0]  91 258
[0]  91 273
[0]  91 217
[0]  91 430
[0]  91 241
[0]  91 271
[0]  90 362
[0]  90 456
[0]  90 288
[0]  90 295
[0]  90 388
[0]  90 296
[0]  90 498
[0]  90 473
[0]  90 215
[0]  90 432
[0]  89 329
[0]  89 431
[0]  89 321
[0]  89 418
[0]  89 403
[0]  89 258
[0]  89 335
[0]  89 287
[0]  89 473
[0]  88 220
[0]  88 216
[0]  88 370
[0]  88 235
[0]  88 482
[0]  88 219
[0]  88 291
[0]  88 378
[0]  87 210
[0]  87 255
[0]  87 403
[0]  87 213
[0]  87 469
[0]  87 374
[0]  87 220
[0]  87 374
[0]  87 281
[0]  87 466
[0]  87 359
[0]  86 279
[0]  86 297
[0]  86 212
[0]  86 223
[0]  86 341
[0]  86 293
[0]  86 460
[0]  86 453
[0]  86 488
[0]  86 202
[0]  86 366
[0]  85 437
[0]  85 246
[0]  85 492
[0]  85 441
[0]  85 384
[0]  85 496
[0]  85 324
[0]  85 257
[0]  85 259
[0]  85 473
[0]  85 328
[0]  85 261
[0]  85 456
[0]  85 464
[0]  85 454
[0]  84 456
[0]  84 270
[0]  84 478
[0]  84 421
[0]  84 203
[0]  84 206
[0]  84 243
[0]  84 218
[0]  84 273
[0]  84 471
[0]  84 236
[0]  83 311
[0]  83 201
[0]  83 419
[0]  83 491
[0]  83 439
[0]  83 245
[0]  83 388
[0]  83 392
[0]  83 272
[0]  83 380
[0]  83 300
[0]  82 329
[0]  82 306
[0]  82 227
[0]  82 288
[0]  82 336
[0]  82 296
[0]  82 263
[0]  82 436
[0]  82 430
[0]  82 493
[0]  82 230
[0]  81 424
[0]  81 499
[0]  81 370
[0]  81 497
[0]  81 392
[0]  81 354
[0]  81 470
[0]  81 478
[0]  81 228
[0]  81 338
[0]  81 417
[0]  81 397
[0]  81 270
[0]  81 276
[0]  80 418
[0]  80 280
[0]  80 485
[0]  80 205
[0]  80 410
[0]  80 388
[0]  80 460
[0]  80 408
[0]  80 450
[0]  79 240
[0]  79 217
[0]  79 255
[0]  79 353
[0]  79 201
[0]  79 407
[0]  79 389
[0]  79 295
[0]  79 458
[0]  79 464
[0]  79 282
[0]  79 467
[0]  79 351
[0]  79 289
[0]  79 376
[0]  79 470
[0]  79 377
[0]  78 375
[0]  78 257
[0]  78 450
[0]  78 478
[0]  78 300
[0]  78 208
[0]  78 246
[0]  78 439
[0]  78 255
[0]  78 432
[0]  78 383
[0]  77 369
[0]  77 294
[0]  77 452
[0]  77 260
[0]  77 371
[0]  77 418
[0]  77 218
[0]  77 249
[0]  77 430
[0]  77 397
[0]  77 218
[0]  77 343
[0]  77 421
[0]  77 321
[0]  77 493
[0]  77 202
[0]  77 498
[0]  76 387
[0]  76 406
[0]  76 293
[0]  76 310
[0]  76 393
[0]  76 204
[0]  76 293
[0]  76 245
[0]  76 342
[0]  76 323
[0]  76 469
[0]  75 291
[0]  75 405
[0]  75 289
[0]  75 447
[0]  75 450
[0]  75 389
[0]  75 299
[0]  75 421
[0]  75 425
[0]  75 438
[0]  75 454
[0]  75 394
[0]  75 496
[0]  74 427
[0]  74 255
[0]  74 436
[0]  74 246
[0]  74 221
[0]  74 204
[0]  74 408
[0]  74 358
[0]  74 221
[0]  74 333
[0]  73 340
[0]  73 400
[0]  73 477
[0]  73 390
[0]  73 348
[0]  73 386
[0]  73 428
[0]  73 466
[0]  73 226
[0]  73 447
[0]  73 271
[0]  73 330
[0]  73 313
[0]  73 426
[0]  73 330
[0]  73 368
[0]  73 293
[0]  72 488
[0]  72 227
[0]  72 432
[0]  72 276
[0]  72 380
[0]  72 431
[0]  72 317
[0]  72 278
[0]  72 415
[0]  72 397
[0]  71 284
[0]  71 354
[0]  71 280
[0]  71 285
[0]  71 215
[0]  71 479
[0]  71 358
[0]  71 283
[0]  70 278
[0]  70 349
[0]  70 478
[0]  70 440
[0]  70 431
[0]  69 478
[0]  69 308
[0]  69 379
[0]  69 289
[0]  69 247
[0]  69 357
[0]  69 249
[0]  69 216
[0]  69 420
[0]  69 294
[0]  69 489
[0]  69 489
[0]  69 466
[0]  69 422
[0]  69 483
[0]  69 460
[0]  68 466
[0]  68 446
[0]  68 246
[0]  68 379
[0]  68 239
[0]  68 305
[0]  68 258
[0]  67 420
[0]  67 289
[0]  67 212
[0]  67 485
[0]  67 310
[0]  67 370
[0]  67 414
[0]  67 314
[0]  67 359
[0]  67 245
[0]  67 242
[0]  67 206
[0]  67 281
[0]  67 446
[0]  67 270
[0]  67 416
[0]  67 233
[0]  66 317
[0]  66 238
[0]  66 276
[0]  66 494
[0]  66 368
[0]  66 274
[0]  66 389
[0]  66 383
[0]  66 260
[0]  66 221
[0]  66 480
[0]  65 279
[0]  65 366
[0]  65 415
[0]  65 271
[0]  65 452
[0]  65 285
[0]  65 464
[0]  65 294
[0]  65 427
[0]  65 432
[0]  64 325
[0]  64 352
[0]  64 360
[0]  64 455
[0]  64 488
[0]  64 481
[0]  64 352
[0]  64 479
[0]  64 431
[0]  64 255
[0]  64 326
[0]  64 319
[0]  64 486
[0]  64 205
[0]  63 317
[0]  63 410
[0]  63 247
[0]  63 482
[0]  63 447
[0]  63 413
[0]  63 243
[0]  63 264
[0]  63 320
[0]  63 281
[0]  63 433
[0]  63 261
[0]  62 224
[0]  62 417
[0]  62 220
[0]  62 488
[0]  62 468
[0]  62 366
[0]  62 299
[0]  62 335
[0]  62 224
[0]  62 437
[0]  62 208
[0]  62 451
[0]  62 470
[0]  61 462
[0]  61 477
[0]  61 233
[0]  61 386
[0]  61 386
[0]  61 229
[0]  61 247
[0]  61 436
[0]  61 441
[0]  61 403
[0]  61 478
[0]  61 211
[0]  61 294
[0]  61 203
[0]  61 254
[0]  61 445
[0]  60 239
[0]  59 241
[0]  59 353
[0]  59 265
[0]  59 423
[0]  59 285
[0]  59 422
[0]  59 462
[0]  59 398
[0]  59 435
[0]  59 321
[0]  59 369
[0]  59 359
[0]  59 468
[0]  59 437
[0]  58 274
[0]  58 340
[0]  58 270
[0]  58 226
[0]  58 397
[0]  58 421
[0]  58 252
[0]  58 240
[0]  57 370
[0]  57 261
[0]  57 282
[0]  57 258
[0]  57 268
[0]  57 442
[0]  57 463
[0]  57 230
[0]  57 451
[0]  57 380
[0]  56 472
[0]  56 220
[0]  56 297
[0]  56 208
[0]  56 469
[0]  56 212
[0]  56 455
[0]  56 390
[0]  56 449
[0]  56 433
[0]  56 452
[0]  56 412
[0]  56 343
[0]  56 245
[0]  55 465
[0]  55 215
[0]  55 203
[0]  55 204
[0]  55 433
[0]  55 263
[0]  55 295
[0]  55 341
[0]  55 372
[0]  55 329
[0]  55 465
[0]  55 265
[0]  54 222
[0]  54 268
[0]  54 390
[0]  54 234
[0]  54 428
[0]  54 288
[0]  54 210
[0]  54 219
[0]  54 352
[0]  54 259
[0]  53 301
[0]  53 461
[0]  53 205
[0]  53 441
[0]  53 389
[0]  53 488
[0]  53 208
[0]  52 362
[0]  52 278
[0]  52 361
[0]  52 292
[0]  52 298
[0]  52 426
[0]  52 213
[0]  52 451
[0]  52 489
[0]  52 487
[0]  51 363
[0]  51 363
[0]  51 346
[0]  51 318
[0]  51 343
[0]  51 401
[0]  51 487
[0]  51 334
[0]  51 492
[0]  50 457
[0]  50 244
[0]  50 249
[0]  50 430
[0]  50 378
[0]  50 323
[0]  50 237
[0]  50 451
[0]  50 238
[0]  50 288
[0]  50 474
[0]  49 246
[0]  49 313
[0]  49 441
[0]  49 326
[0]  49 444
[0]  49 335
[0]  49 342
[0]  49 451
[0]  48 428
[0]  48 213
[0]  48 490
[0]  48 352
[0]  48 377
[0]  48 209
[0]  48 410
[0]  48 462
[0]  48 207
[0]  48 212
[0]  48 247
[0]  47 297
[0]  47 233
[0]  47 366
[0]  47 303
[0]  47 350
[0]  47 243
[0]  47 285
[0]  47 420
[0]  47 358
[0]  47 499
[0]  46 465
[0]  46 294
[0]  46 246
[0]  46 372
[0]  46 451
[0]  46 260
[0]  46 267
[0]  46 414
[0]  46 315
[0]  46 444
[0]  46 248
[0]  46 311
[0]  46 409
[0]  46 280
[0]  46 430
[0]  46 284
[0]  46 205
[0]  46 216
[0]  46 207
[0]  45 357
[0]  45 475
[0]  45 467
[0]  45 336
[0]  45 331
[0]  45 413
[0]  45 229
[0]  45 230
[0]  45 311
[0]  45 252
[0]  45 477
[0]  45 419
[0]  44 206
[0]  44 432
[0]  44 355
[0]  44 305
[0]  44 468
[0]  44 360
[0]  44 379
[0]  44 375
[0]  44 387
[0]  44 462
[0]  44 337
[0]  43 420
[0]  43 468
[0]  43 434
[0]  43 329
[0]  43 256
[0]  43 390
[0]  43 454
[0]  43 297
[0]  43 292
[0]  43 480
[0]  43 396
[0]  42 277
[0]  42 486
[0]  42 268
[0]  42 449
[0]  42 223
[0]  42 259
[0]  42 397
[0]  42 398
[0]  41 496
[0]  41 288
[0]  41 410
[0]  41 294
[0]  41 396
[0]  41 292
[0]  41 402
[0]  41 388
[0]  41 391
[0]  41 392
[0]  41 278
[0]  41 238
[0]  41 407
[0]  41 482
[0]  41 448
[0]  40 232
[0]  40 256
[0]  40 251
[0]  40 253
[0]  40 283
[0]  40 338
[0]  40 352
[0]  40 293
[0]  40 394
[0]  40 486
[0]  40 327
[0]  40 205
[0]  40 325
[0]  40 493
[0]  39 428
[0]  39 313
[0]  39 305
[0]  39 344
[0]  39 406
[0]  39 387
[0]  39 362
[0]  39 383
[0]  39 366
[0]  38 318
[0]  38 368
[0]  38 200
[0]  38 451
[0]  38 287
[0]  38 445
[0]  38 222
[0]  38 415
[0]  38 486
[0]  38 356
[0]  37 334
[0]  37 226
[0]  37 401
[0]  37 226
[0]  37 384
[0]  37 407
[0]  37 335
[0]  37 271
[0]  36 224
[0]  36 493
[0]  36 384
[0]  36 387
[0]  36 499
[0]  36 291
[0]  36 360
[0]  36 429
[0]  36 276
[0]  36 236
[0]  36 460
[0]  35 226
[0]  35 384
[0]  35 229
[0]  35 279
[0]  35 212
[0]  35 500
[0]  35 314
[0]  34 247
[0]  34 260
[0]  34 286
[0]  34 336
[0]  34 216
[0]  34 470
[0]  34 368
[0]  34 365
[0]  34 232
[0]  34 477
[0]  34 270
[0]  34 450
[0]  34 210
[0]  34 490
[0]  34 288
[0]  34 228
[0]  34 428
[0]  34 350
[0]  33 349
[0]  33 402
[0]  33 304
[0]  33 216
[0]  33 386
[0]  33 390
[0]  33 346
[0]  33 498
[0]  33 251
[0]  33 460
[0]  33 247
[0]  33 329
[0]  33 217
[0]  33 224
[0]  33 452
[0]  33 466
[0]  32 449
[0]  32 291
[0]  32 385
[0]  32 283
[0]  32 256
[0]  32 429
[0]  32 466
[0]  32 420
[0]  32 277
[0]  32 456
[0]  32 405
[0]  32 457
[0]  31 373
[0]  31 256
[0]  31 375
[0]  31 321
[0]  31 327
[0]  31 343
[0]  31 259
[0]  31 363
[0]  31 476
[0]  30 249
[0]  30 428
[0]  30 231
[0]  30 449
[0]  30 462
[0]  30 245
[0]  30 246
[0]  30 401
[0]  30 474
[0]  30 365
[0]  30 281
[0]  30 353
[0]  30 260
[0]  29 455
[0]  29 355
[0]  29 426
[0]  29 296
[0]  29 411
[0]  29 363
[0]  29 212
[0]  29 481
[0]  29 366
[0]  29 480
[0]  29 344
[0]  28 443
[0]  28 220
[0]  28 435
[0]  28 369
[0]  28 474
[0]  28 213
[0]  28 349
[0]  28 204
[0]  28 219
[0]  28 453
[0]  28 218
[0]  28 264
[0]  27 232
[0]  27 355
[0]  27 321
[0]  27 295
[0]  27 477
[0]  27 491
[0]  27 259
[0]  27 353
[0]  26 334
[0]  26 306
[0]  26 395
[0]  26 225
[0]  26 231
[0]  26 230
[0]  26 410
[0]  26 329
[0]  26 283
[0]  26 203
[0]  25 268
[0]  25 493
[0]  25 293
[0]  25 327
[0]  25 472
[0]  25 219
[0]  24 295
[0]  24 366
[0]  24 336
[0]  24 267
[0]  24 496
[0]  24 293
[0]  24 309
[0]  23 422
[0]  23 236
[0]  23 351
[0]  23 371
[0]  23 366
[0]  22 273
[0]  22 450
[0]  22 430
[0]  22 433
[0]  22 405
[0]  22 295
[0]  21 259
[0]  21 246
[0]  21 452
[0]  21 236
[0]  21 398
[0]  21 493
[0]  21 265
[0]  21 448
[0]  21 288
[0]  21 393
[0]  21 359
[0]  20 399
[0]  20 315
[0]  20 435
[0]  20 470
[0]  20 315
[0]  20 340
[0]  20 363
[0]  19 247
[0]  19 307
[0]  19 219
[0]  19 450
[0]  19 463
[0]  19 323
[0]  19 268
[0]  19 388
[0]  18 282
[0]  18 449
[0]  18 368
[0]  18 444
[0]  18 340
[0]  18 244
[0]  18 417
[0]  18 353
[0]  18 244
[0]  18 477
[0]  18 325
[0]  18 416
[0]  18 469
[0]  17 370
[0]  17 341
[0]  17 340
[0]  17 476
[0]  17 387
[0]  17 475
[0]  17 394
[0]  17 259
[0]  17 375
[0]  16 419
[0]  16 482
[0]  16 302
[0]  16 281
[0]  16 298
[0]  16 344
[0]  16 242
[0]  16 462
[0]  16 357
[0]  15 246
[0]  15 289
[0]  15 446
[0]  15 335
[0]  15 379
[0]  15 223
[0]  15 415
[0]  15 205
[0]  15 329
[0]  15 233
[0]  14 337
[0]  14 401
[0]  14 218
[0]  14 365
[0]  14 358
[0]  14 290
[0]  14 235
[0]  14 332
[0]  14 278
[0]  13 254
[0]  13 287
[0]  13 247
[0]  13 375
[0]  13 266
[0]  13 309
[0]  13 385
[0]  13 324
[0]  13 311
[0]  13 321
[0]  13 419
[0]  13 260
[0]  13 419
[0]  12 500
[0]  12 368
[0]  12 225
[0]  12 324
[0]  12 377
[0]  12 219
[0]  12 265
[0]  12 470
[0]  12 300
[0]  12 345
[0]  12 396
[0]  11 329
[0]  11 348
[0]  11 309
[0]  11 432
[0]  11 363
[0]  11 314
[0]  11 350
[0]  11 224
[0]  11 277
[0]  11 245
[0]  11 233
[0]  11 285
[0]  11 213
[0]  11 302
[0]  10 492
[0]  10 500
[0]  10 436
[0]  10 484
[0]  10 404
[0]  10 320
[0]  10 308
[0]  10 330
[0]  10 359
[0]  10 342
[0]  10 371
